(set-info :source |printed by MathSAT|)
(declare-fun call_First4.First () Int)
(declare-fun call__DRAGON_.shared_dirty () Int)
(declare-fun call__DRAGON_.g04 () Bool)
(declare-fun call__DRAGON_.ite49 () Int)
(declare-fun _R11_ () Bool)
(declare-fun _R6_ () Bool)
(declare-fun _R3_ () Bool)
(declare-fun _R8_ () Bool)
(declare-fun param_e06 () Bool)
(declare-fun call__DRAGON_.ite58 () Int)
(declare-fun param_e07 () Bool)
(declare-fun call__DRAGON_.flby5 () Int)
(declare-fun _R14_ () Bool)
(declare-fun call__DRAGON_.ite2 () Int)
(declare-fun param_e05 () Bool)
(declare-fun call__DRAGON_.ite54 () Int)
(declare-fun call__DRAGON_.ite29 () Int)
(declare-fun call__DRAGON_.flby6 () Int)
(declare-fun call__DRAGON_.ite12 () Int)
(declare-fun call__DRAGON_.ite6 () Int)
(declare-fun call__DRAGON_.ite34 () Int)
(declare-fun call__DRAGON_.flby3 () Int)
(declare-fun env () Bool)
(declare-fun call__DRAGON_.g05 () Bool)
(declare-fun call__DRAGON_.mem_init () Int)
(declare-fun call__DRAGON_.ite33 () Int)
(declare-fun call__DRAGON_.ite19 () Int)
(declare-fun call__DRAGON_.ite27 () Int)
(declare-fun call__DRAGON_.ite48 () Int)
(declare-fun call_First.First () Int)
(declare-fun call__DRAGON_.ite8 () Int)
(declare-fun call__DRAGON_.ite39 () Int)
(declare-fun invalid () Int)
(declare-fun _OK_ () Bool)
(declare-fun call__DRAGON_.ite57 () Int)
(declare-fun call__DRAGON_.ite22 () Int)
(declare-fun call__DRAGON_.ite5 () Int)
(declare-fun call__DRAGON_.ite15 () Int)
(declare-fun call__DRAGON_.flby4 () Int)
(declare-fun param_e12 () Bool)
(declare-fun call__DRAGON_.ite53 () Int)
(declare-fun call__DRAGON_.ite11 () Int)
(declare-fun call__DRAGON_.ite37 () Int)
(declare-fun flby () Bool)
(declare-fun call_First3.First () Int)
(declare-fun call_excludes12.excludes () Bool)
(declare-fun param_init_invalid () Int)
(declare-fun call__DRAGON_.ite56 () Int)
(declare-fun call_First3.flby () Int)
(declare-fun _R12_ () Bool)
(declare-fun call__DRAGON_.exclusive () Int)
(declare-fun call__DRAGON_.ite42 () Int)
(declare-fun _R4_ () Bool)
(declare-fun _R9_ () Bool)
(declare-fun param_e08 () Bool)
(declare-fun call__DRAGON_.ite25 () Int)
(declare-fun call__DRAGON_.ite21 () Int)
(declare-fun call__DRAGON_.ite7 () Int)
(declare-fun call__DRAGON_.ite46 () Int)
(declare-fun call__DRAGON_.ite4 () Int)
(declare-fun call_First4.flby () Int)
(declare-fun call_Sofar.flby () Bool)
(declare-fun call__DRAGON_.g08 () Bool)
(declare-fun param_e04 () Bool)
(declare-fun param_e11 () Bool)
(declare-fun call__DRAGON_.ite61 () Int)
(declare-fun call__DRAGON_.ite55 () Int)
(declare-fun _R1_ () Bool)
(declare-fun call_First2.flby () Int)
(declare-fun call__DRAGON_.ite () Bool)
(declare-fun dirty () Int)
(declare-fun call__DRAGON_.ite59 () Int)
(declare-fun call__DRAGON_.ite3 () Int)
(declare-fun call__DRAGON_.ite31 () Int)
(declare-fun call__DRAGON_.ite28 () Int)
(declare-fun call__DRAGON_.shared () Int)
(declare-fun call__DRAGON_.ite45 () Int)
(declare-fun call__DRAGON_.ite14 () Int)
(declare-fun call__DRAGON_.ite36 () Int)
(declare-fun call__DRAGON_.flby () Int)
(declare-fun call__DRAGON_.g06 () Bool)
(declare-fun call__DRAGON_.ite35 () Int)
(declare-fun call__DRAGON_.ite32 () Int)
(declare-fun call__DRAGON_.ite13 () Int)
(declare-fun shared_dirty () Int)
(declare-fun call__DRAGON_.ite24 () Int)
(declare-fun call__DRAGON_.ite47 () Int)
(declare-fun call__DRAGON_.ite44 () Int)
(declare-fun call_First5.First () Int)
(declare-fun call__DRAGON_.ite30 () Int)
(declare-fun call__DRAGON_.ite20 () Int)
(declare-fun call__DRAGON_.ite9 () Int)
(declare-fun param_e03 () Bool)
(declare-fun call__DRAGON_.ite17 () Int)
(declare-fun call_First.flby () Int)
(declare-fun _R13_ () Bool)
(declare-fun _R10_ () Bool)
(declare-fun _R5_ () Bool)
(declare-fun _R2_ () Bool)
(declare-fun _R7_ () Bool)
(declare-fun call__DRAGON_.ite60 () Int)
(declare-fun call__DRAGON_.dirty () Int)
(declare-fun param_e02 () Bool)
(declare-fun call__DRAGON_.ite16 () Int)
(declare-fun param_e10 () Bool)
(declare-fun call__DRAGON_.ite43 () Int)
(declare-fun call__DRAGON_.ite38 () Int)
(declare-fun call__DRAGON_.ite52 () Int)
(declare-fun call__DRAGON_.ite50 () Int)
(declare-fun param_e09 () Bool)
(declare-fun call__DRAGON_.g02 () Bool)
(declare-fun exclusive () Int)
(declare-fun call__DRAGON_.ite23 () Int)
(declare-fun erreur () Bool)
(declare-fun call__DRAGON_.ite18 () Int)
(declare-fun call__DRAGON_.ite40 () Int)
(declare-fun shared () Int)
(declare-fun call_Sofar.Sofar () Bool)
(declare-fun call_First2.First () Int)
(declare-fun call__DRAGON_.ite10 () Int)
(declare-fun param_e01 () Bool)
(declare-fun call__DRAGON_.ite41 () Int)
(declare-fun call__DRAGON_.flby2 () Int)
(declare-fun call__DRAGON_.invalid () Int)
(declare-fun call__DRAGON_.erreur () Bool)
(declare-fun call__DRAGON_.ite51 () Int)
(declare-fun call__DRAGON_.ite26 () Int)
(declare-fun call_First5.flby () Int)
(define-fun .def_2127 () Bool (= call_First5.flby call_First5.First))
(define-fun .def_2125 () Bool (= call_First4.flby call_First4.First))
(define-fun .def_2123 () Bool (= call_First3.flby call_First3.First))
(define-fun .def_2121 () Bool (= call_First2.flby call_First2.First))
(define-fun .def_2119 () Bool (= call_First.flby call_First.First))
(define-fun .def_2117 () Bool (= call_Sofar.flby call_Sofar.Sofar))
(define-fun .def_1960 () Bool (not param_e02))
(define-fun .def_1942 () Bool (not param_e01))
(define-fun .def_2015 () Bool (and .def_1942 .def_1960))
(define-fun .def_1671 () Bool (not param_e03))
(define-fun .def_2016 () Bool (and .def_1671 .def_2015))
(define-fun .def_1654 () Bool (not param_e04))
(define-fun .def_2017 () Bool (and .def_1654 .def_2016))
(define-fun .def_1690 () Bool (not param_e05))
(define-fun .def_2018 () Bool (and .def_1690 .def_2017))
(define-fun .def_1708 () Bool (not param_e06))
(define-fun .def_2019 () Bool (and .def_1708 .def_2018))
(define-fun .def_1782 () Bool (not param_e07))
(define-fun .def_2020 () Bool (and .def_1782 .def_2019))
(define-fun .def_1862 () Bool (not param_e08))
(define-fun .def_2021 () Bool (and .def_1862 .def_2020))
(define-fun .def_1533 () Bool (not param_e09))
(define-fun .def_2022 () Bool (and .def_1533 .def_2021))
(define-fun .def_1541 () Bool (not param_e10))
(define-fun .def_2023 () Bool (and .def_1541 .def_2022))
(define-fun .def_1548 () Bool (not param_e11))
(define-fun .def_2024 () Bool (and .def_1548 .def_2023))
(define-fun .def_1555 () Bool (not param_e12))
(define-fun .def_2102 () Bool (and .def_1555 .def_2024))
(define-fun .def_2091 () Bool (and param_e01 .def_1960))
(define-fun .def_2092 () Bool (and .def_1671 .def_2091))
(define-fun .def_2093 () Bool (and .def_1654 .def_2092))
(define-fun .def_2094 () Bool (and .def_1690 .def_2093))
(define-fun .def_2095 () Bool (and .def_1708 .def_2094))
(define-fun .def_2096 () Bool (and .def_1782 .def_2095))
(define-fun .def_2097 () Bool (and .def_1862 .def_2096))
(define-fun .def_2098 () Bool (and .def_1533 .def_2097))
(define-fun .def_2099 () Bool (and .def_1541 .def_2098))
(define-fun .def_2100 () Bool (and .def_1548 .def_2099))
(define-fun .def_2101 () Bool (and .def_1555 .def_2100))
(define-fun .def_2103 () Bool (or .def_2101 .def_2102))
(define-fun .def_2080 () Bool (and .def_1942 param_e02))
(define-fun .def_2081 () Bool (and .def_1671 .def_2080))
(define-fun .def_2082 () Bool (and .def_1654 .def_2081))
(define-fun .def_2083 () Bool (and .def_1690 .def_2082))
(define-fun .def_2084 () Bool (and .def_1708 .def_2083))
(define-fun .def_2085 () Bool (and .def_1782 .def_2084))
(define-fun .def_2086 () Bool (and .def_1862 .def_2085))
(define-fun .def_2087 () Bool (and .def_1533 .def_2086))
(define-fun .def_2088 () Bool (and .def_1541 .def_2087))
(define-fun .def_2089 () Bool (and .def_1548 .def_2088))
(define-fun .def_2090 () Bool (and .def_1555 .def_2089))
(define-fun .def_2104 () Bool (or .def_2090 .def_2103))
(define-fun .def_2070 () Bool (and param_e03 .def_2015))
(define-fun .def_2071 () Bool (and .def_1654 .def_2070))
(define-fun .def_2072 () Bool (and .def_1690 .def_2071))
(define-fun .def_2073 () Bool (and .def_1708 .def_2072))
(define-fun .def_2074 () Bool (and .def_1782 .def_2073))
(define-fun .def_2075 () Bool (and .def_1862 .def_2074))
(define-fun .def_2076 () Bool (and .def_1533 .def_2075))
(define-fun .def_2077 () Bool (and .def_1541 .def_2076))
(define-fun .def_2078 () Bool (and .def_1548 .def_2077))
(define-fun .def_2079 () Bool (and .def_1555 .def_2078))
(define-fun .def_2105 () Bool (or .def_2079 .def_2104))
(define-fun .def_2061 () Bool (and param_e04 .def_2016))
(define-fun .def_2062 () Bool (and .def_1690 .def_2061))
(define-fun .def_2063 () Bool (and .def_1708 .def_2062))
(define-fun .def_2064 () Bool (and .def_1782 .def_2063))
(define-fun .def_2065 () Bool (and .def_1862 .def_2064))
(define-fun .def_2066 () Bool (and .def_1533 .def_2065))
(define-fun .def_2067 () Bool (and .def_1541 .def_2066))
(define-fun .def_2068 () Bool (and .def_1548 .def_2067))
(define-fun .def_2069 () Bool (and .def_1555 .def_2068))
(define-fun .def_2106 () Bool (or .def_2069 .def_2105))
(define-fun .def_2053 () Bool (and param_e05 .def_2017))
(define-fun .def_2054 () Bool (and .def_1708 .def_2053))
(define-fun .def_2055 () Bool (and .def_1782 .def_2054))
(define-fun .def_2056 () Bool (and .def_1862 .def_2055))
(define-fun .def_2057 () Bool (and .def_1533 .def_2056))
(define-fun .def_2058 () Bool (and .def_1541 .def_2057))
(define-fun .def_2059 () Bool (and .def_1548 .def_2058))
(define-fun .def_2060 () Bool (and .def_1555 .def_2059))
(define-fun .def_2107 () Bool (or .def_2060 .def_2106))
(define-fun .def_2046 () Bool (and param_e06 .def_2018))
(define-fun .def_2047 () Bool (and .def_1782 .def_2046))
(define-fun .def_2048 () Bool (and .def_1862 .def_2047))
(define-fun .def_2049 () Bool (and .def_1533 .def_2048))
(define-fun .def_2050 () Bool (and .def_1541 .def_2049))
(define-fun .def_2051 () Bool (and .def_1548 .def_2050))
(define-fun .def_2052 () Bool (and .def_1555 .def_2051))
(define-fun .def_2108 () Bool (or .def_2052 .def_2107))
(define-fun .def_2040 () Bool (and param_e07 .def_2019))
(define-fun .def_2041 () Bool (and .def_1862 .def_2040))
(define-fun .def_2042 () Bool (and .def_1533 .def_2041))
(define-fun .def_2043 () Bool (and .def_1541 .def_2042))
(define-fun .def_2044 () Bool (and .def_1548 .def_2043))
(define-fun .def_2045 () Bool (and .def_1555 .def_2044))
(define-fun .def_2109 () Bool (or .def_2045 .def_2108))
(define-fun .def_2035 () Bool (and param_e08 .def_2020))
(define-fun .def_2036 () Bool (and .def_1533 .def_2035))
(define-fun .def_2037 () Bool (and .def_1541 .def_2036))
(define-fun .def_2038 () Bool (and .def_1548 .def_2037))
(define-fun .def_2039 () Bool (and .def_1555 .def_2038))
(define-fun .def_2110 () Bool (or .def_2039 .def_2109))
(define-fun .def_2031 () Bool (and param_e09 .def_2021))
(define-fun .def_2032 () Bool (and .def_1541 .def_2031))
(define-fun .def_2033 () Bool (and .def_1548 .def_2032))
(define-fun .def_2034 () Bool (and .def_1555 .def_2033))
(define-fun .def_2111 () Bool (or .def_2034 .def_2110))
(define-fun .def_2028 () Bool (and param_e10 .def_2022))
(define-fun .def_2029 () Bool (and .def_1548 .def_2028))
(define-fun .def_2030 () Bool (and .def_1555 .def_2029))
(define-fun .def_2112 () Bool (or .def_2030 .def_2111))
(define-fun .def_2026 () Bool (and param_e11 .def_2023))
(define-fun .def_2027 () Bool (and .def_1555 .def_2026))
(define-fun .def_2113 () Bool (or .def_2027 .def_2112))
(define-fun .def_2025 () Bool (and param_e12 .def_2024))
(define-fun .def_2114 () Bool (or .def_2025 .def_2113))
(define-fun .def_2115 () Bool (= call_excludes12.excludes .def_2114))
(define-fun .def_2013 () Bool (= call__DRAGON_.mem_init call__DRAGON_.flby))
(define-fun .def_2011 () Bool (= call__DRAGON_.erreur call__DRAGON_.ite))
(define-fun .def_2009 () Bool (= call__DRAGON_.flby6 call__DRAGON_.invalid))
(define-fun .def_2007 () Bool (= call__DRAGON_.flby5 call__DRAGON_.dirty))
(define-fun .def_2005 () Bool (= call__DRAGON_.flby4 call__DRAGON_.shared_dirty))
(define-fun .def_2003 () Bool (= call__DRAGON_.flby3 call__DRAGON_.shared))
(define-fun .def_2000 () Bool (= call__DRAGON_.flby2 call__DRAGON_.exclusive))
(define-fun .def_1995 () Bool (<= 2 call__DRAGON_.exclusive))
(define-fun .def_1997 () Bool (not .def_1995))
(define-fun .def_1998 () Bool (or call__DRAGON_.ite .def_1997))
(define-fun .def_1994 () Bool (not call__DRAGON_.ite))
(define-fun .def_1996 () Bool (or .def_1994 .def_1995))
(define-fun .def_1999 () Bool (and .def_1996 .def_1998))
(define-fun .def_2001 () Bool (and .def_1999 .def_2000))
(define-fun .def_1989 () Bool (= call__DRAGON_.ite30 call__DRAGON_.ite31))
(define-fun .def_1990 () Bool (or param_e02 .def_1989))
(define-fun .def_1986 () Bool (= call__DRAGON_.ite22 call__DRAGON_.ite31))
(define-fun .def_1987 () Bool (or .def_1960 .def_1986))
(define-fun .def_1981 () Bool (= call__DRAGON_.ite20 call__DRAGON_.ite21))
(define-fun .def_1982 () Bool (or param_e02 .def_1981))
(define-fun .def_1978 () Bool (= call__DRAGON_.ite12 call__DRAGON_.ite21))
(define-fun .def_1979 () Bool (or .def_1960 .def_1978))
(define-fun .def_1973 () Bool (= call__DRAGON_.ite9 call__DRAGON_.ite10))
(define-fun .def_1974 () Bool (or param_e02 .def_1973))
(define-fun .def_1970 () Bool (= call__DRAGON_.ite3 call__DRAGON_.ite10))
(define-fun .def_1971 () Bool (or .def_1960 .def_1970))
(define-fun .def_1967 () Bool (= call__DRAGON_.ite59 call__DRAGON_.ite60))
(define-fun .def_1968 () Bool (or param_e02 .def_1967))
(define-fun .def_1964 () Bool (= call__DRAGON_.ite60 call__DRAGON_.ite47))
(define-fun .def_1965 () Bool (or .def_1960 .def_1964))
(define-fun .def_1959 () Bool (= call__DRAGON_.ite32 call__DRAGON_.ite45))
(define-fun .def_1961 () Bool (or .def_1959 .def_1960))
(define-fun .def_1956 () Bool (= call__DRAGON_.ite44 call__DRAGON_.ite45))
(define-fun .def_1958 () Bool (or .def_1956 param_e02))
(define-fun .def_1962 () Bool (and .def_1958 .def_1961))
(define-fun .def_1966 () Bool (and .def_1962 .def_1965))
(define-fun .def_1969 () Bool (and .def_1966 .def_1968))
(define-fun .def_1972 () Bool (and .def_1969 .def_1971))
(define-fun .def_1975 () Bool (and .def_1972 .def_1974))
(define-fun .def_1980 () Bool (and .def_1975 .def_1979))
(define-fun .def_1983 () Bool (and .def_1980 .def_1982))
(define-fun .def_1988 () Bool (and .def_1983 .def_1987))
(define-fun .def_1991 () Bool (and .def_1988 .def_1990))
(define-fun .def_1951 () Bool (= call__DRAGON_.ite11 call__DRAGON_.ite10))
(define-fun .def_1952 () Bool (or param_e01 .def_1951))
(define-fun .def_1947 () Bool (= call__DRAGON_.ite2 call__DRAGON_.ite11))
(define-fun .def_1948 () Bool (or .def_1942 .def_1947))
(define-fun .def_1941 () Bool (= call__DRAGON_.ite61 call__DRAGON_.ite46))
(define-fun .def_1943 () Bool (or .def_1941 .def_1942))
(define-fun .def_1937 () Bool (= call__DRAGON_.ite61 call__DRAGON_.ite60))
(define-fun .def_1939 () Bool (or .def_1937 param_e01))
(define-fun .def_1944 () Bool (and .def_1939 .def_1943))
(define-fun .def_1949 () Bool (and .def_1944 .def_1948))
(define-fun .def_1953 () Bool (and .def_1949 .def_1952))
(define-fun .def_1931 () Bool (= call__DRAGON_.ite55 call__DRAGON_.ite52))
(define-fun .def_1932 () Bool (or .def_1548 .def_1931))
(define-fun .def_1928 () Bool (= call__DRAGON_.ite54 call__DRAGON_.ite55))
(define-fun .def_1929 () Bool (or param_e11 .def_1928))
(define-fun .def_1933 () Bool (and .def_1929 .def_1932))
(define-fun .def_1924 () Bool (= call__DRAGON_.ite56 call__DRAGON_.ite51))
(define-fun .def_1925 () Bool (or .def_1541 .def_1924))
(define-fun .def_1921 () Bool (= call__DRAGON_.ite56 call__DRAGON_.ite55))
(define-fun .def_1922 () Bool (or param_e10 .def_1921))
(define-fun .def_1926 () Bool (and .def_1922 .def_1925))
(define-fun .def_1916 () Bool (= call__DRAGON_.ite57 call__DRAGON_.ite50))
(define-fun .def_1917 () Bool (or .def_1533 .def_1916))
(define-fun .def_1913 () Bool (= call__DRAGON_.ite57 call__DRAGON_.ite56))
(define-fun .def_1914 () Bool (or param_e09 .def_1913))
(define-fun .def_1918 () Bool (and .def_1914 .def_1917))
(define-fun .def_1910 () Bool (= env call_Sofar.Sofar))
(define-fun .def_1907 () Bool (= erreur call__DRAGON_.erreur))
(define-fun .def_1902 () Bool (<= invalid call_First5.First))
(define-fun .def_1772 () Bool (not env))
(define-fun .def_1903 () Bool (or .def_1772 .def_1902))
(define-fun .def_1904 () Bool (= _R14_ .def_1903))
(define-fun .def_1897 () Bool (<= dirty call_First4.First))
(define-fun .def_1898 () Bool (or .def_1772 .def_1897))
(define-fun .def_1899 () Bool (= _R13_ .def_1898))
(define-fun .def_1892 () Bool (<= shared_dirty call_First3.First))
(define-fun .def_1893 () Bool (or .def_1772 .def_1892))
(define-fun .def_1894 () Bool (= _R12_ .def_1893))
(define-fun .def_1887 () Bool (= call__DRAGON_.ite39 call__DRAGON_.ite40))
(define-fun .def_1888 () Bool (or param_e08 .def_1887))
(define-fun .def_1884 () Bool (= call__DRAGON_.ite37 call__DRAGON_.ite40))
(define-fun .def_1885 () Bool (or .def_1862 .def_1884))
(define-fun .def_1881 () Bool (= call__DRAGON_.ite27 call__DRAGON_.ite28))
(define-fun .def_1882 () Bool (or param_e08 .def_1881))
(define-fun .def_1878 () Bool (= call__DRAGON_.ite25 call__DRAGON_.ite28))
(define-fun .def_1879 () Bool (or .def_1862 .def_1878))
(define-fun .def_1875 () Bool (= call__DRAGON_.ite17 call__DRAGON_.ite18))
(define-fun .def_1876 () Bool (or param_e08 .def_1875))
(define-fun .def_1872 () Bool (= call__DRAGON_.ite18 call__DRAGON_.ite15))
(define-fun .def_1873 () Bool (or .def_1862 .def_1872))
(define-fun .def_1868 () Bool (= call__DRAGON_.ite7 call__DRAGON_.ite8))
(define-fun .def_1869 () Bool (or param_e08 .def_1868))
(define-fun .def_1865 () Bool (= call__DRAGON_.ite5 call__DRAGON_.ite8))
(define-fun .def_1866 () Bool (or .def_1862 .def_1865))
(define-fun .def_1861 () Bool (= call__DRAGON_.ite58 call__DRAGON_.ite49))
(define-fun .def_1863 () Bool (or .def_1861 .def_1862))
(define-fun .def_1857 () Bool (= call__DRAGON_.ite58 call__DRAGON_.ite57))
(define-fun .def_1859 () Bool (or .def_1857 param_e08))
(define-fun .def_1864 () Bool (and .def_1859 .def_1863))
(define-fun .def_1867 () Bool (and .def_1864 .def_1866))
(define-fun .def_1870 () Bool (and .def_1867 .def_1869))
(define-fun .def_1874 () Bool (and .def_1870 .def_1873))
(define-fun .def_1877 () Bool (and .def_1874 .def_1876))
(define-fun .def_1880 () Bool (and .def_1877 .def_1879))
(define-fun .def_1883 () Bool (and .def_1880 .def_1882))
(define-fun .def_1886 () Bool (and .def_1883 .def_1885))
(define-fun .def_1889 () Bool (and .def_1886 .def_1888))
(define-fun .def_1852 () Bool (<= shared call_First2.First))
(define-fun .def_1853 () Bool (or .def_1772 .def_1852))
(define-fun .def_1854 () Bool (= _R11_ .def_1853))
(define-fun .def_1847 () Bool (<= 0 invalid))
(define-fun .def_1848 () Bool (or .def_1772 .def_1847))
(define-fun .def_1849 () Bool (= _R10_ .def_1848))
(define-fun .def_1843 () Bool (<= 0 dirty))
(define-fun .def_1844 () Bool (or .def_1772 .def_1843))
(define-fun .def_1845 () Bool (= _R9_ .def_1844))
(define-fun .def_1839 () Bool (<= 0 shared_dirty))
(define-fun .def_1840 () Bool (or .def_1772 .def_1839))
(define-fun .def_1841 () Bool (= _R8_ .def_1840))
(define-fun .def_1835 () Bool (<= 0 exclusive))
(define-fun .def_1836 () Bool (or .def_1772 .def_1835))
(define-fun .def_1837 () Bool (= _R7_ .def_1836))
(define-fun .def_1831 () Bool (<= 0 shared))
(define-fun .def_1832 () Bool (or .def_1772 .def_1831))
(define-fun .def_1833 () Bool (= _R6_ .def_1832))
(define-fun .def_1825 () Bool (<= 1 shared))
(define-fun .def_1826 () Bool (not .def_1825))
(define-fun .def_1823 () Bool (<= 1 dirty))
(define-fun .def_1824 () Bool (not .def_1823))
(define-fun .def_1827 () Bool (or .def_1824 .def_1826))
(define-fun .def_1828 () Bool (or .def_1772 .def_1827))
(define-fun .def_1829 () Bool (= _R5_ .def_1828))
(define-fun .def_1819 () Bool (<= dirty 1))
(define-fun .def_1820 () Bool (or .def_1772 .def_1819))
(define-fun .def_1821 () Bool (= _R4_ .def_1820))
(define-fun .def_1809 () Int (* (- 1) call_First.First))
(define-fun .def_1810 () Int (+ invalid .def_1809))
(define-fun .def_1811 () Int (+ dirty .def_1810))
(define-fun .def_1812 () Int (+ shared_dirty .def_1811))
(define-fun .def_1813 () Int (+ shared .def_1812))
(define-fun .def_1814 () Int (+ exclusive .def_1813))
(define-fun .def_1815 () Bool (= .def_1814 0))
(define-fun .def_1816 () Bool (or .def_1772 .def_1815))
(define-fun .def_1817 () Bool (= _R3_ .def_1816))
(define-fun .def_1795 () Bool (or flby .def_1772))
(define-fun .def_1796 () Bool (= _R2_ .def_1795))
(define-fun .def_1791 () Bool (= call__DRAGON_.ite59 call__DRAGON_.ite58))
(define-fun .def_1792 () Bool (or param_e07 .def_1791))
(define-fun .def_1787 () Bool (= call__DRAGON_.ite48 call__DRAGON_.ite59))
(define-fun .def_1788 () Bool (or .def_1782 .def_1787))
(define-fun .def_1781 () Bool (= call__DRAGON_.ite41 call__DRAGON_.ite36))
(define-fun .def_1783 () Bool (or .def_1781 .def_1782))
(define-fun .def_1777 () Bool (= call__DRAGON_.ite41 call__DRAGON_.ite40))
(define-fun .def_1779 () Bool (or .def_1777 param_e07))
(define-fun .def_1784 () Bool (and .def_1779 .def_1783))
(define-fun .def_1789 () Bool (and .def_1784 .def_1788))
(define-fun .def_1793 () Bool (and .def_1789 .def_1792))
(define-fun .def_1770 () Bool (not erreur))
(define-fun .def_1773 () Bool (or .def_1770 .def_1772))
(define-fun .def_1774 () Bool (= _R1_ .def_1773))
(define-fun .def_1767 () Bool (= invalid call__DRAGON_.invalid))
(define-fun .def_1763 () Bool (= dirty call__DRAGON_.dirty))
(define-fun .def_1759 () Bool (= shared_dirty call__DRAGON_.shared_dirty))
(define-fun .def_1755 () Bool (= shared call__DRAGON_.shared))
(define-fun .def_1751 () Bool (= exclusive call__DRAGON_.exclusive))
(define-fun .def_1722 () Bool (and _R1_ _R2_))
(define-fun .def_1724 () Bool (and .def_1722 _R3_))
(define-fun .def_1726 () Bool (and .def_1724 _R4_))
(define-fun .def_1728 () Bool (and .def_1726 _R5_))
(define-fun .def_1730 () Bool (and .def_1728 _R6_))
(define-fun .def_1732 () Bool (and .def_1730 _R7_))
(define-fun .def_1734 () Bool (and .def_1732 _R8_))
(define-fun .def_1736 () Bool (and .def_1734 _R9_))
(define-fun .def_1738 () Bool (and .def_1736 _R10_))
(define-fun .def_1740 () Bool (and .def_1738 _R11_))
(define-fun .def_1742 () Bool (and .def_1740 _R12_))
(define-fun .def_1744 () Bool (and .def_1742 _R13_))
(define-fun .def_1746 () Bool (and .def_1744 _R14_))
(define-fun .def_1747 () Bool (= _OK_ .def_1746))
(define-fun .def_1715 () Bool (= call__DRAGON_.ite29 call__DRAGON_.ite28))
(define-fun .def_1716 () Bool (or param_e06 .def_1715))
(define-fun .def_1711 () Bool (= call__DRAGON_.ite24 call__DRAGON_.ite29))
(define-fun .def_1712 () Bool (or .def_1708 .def_1711))
(define-fun .def_1707 () Bool (= call__DRAGON_.ite19 call__DRAGON_.ite14))
(define-fun .def_1709 () Bool (or .def_1707 .def_1708))
(define-fun .def_1703 () Bool (= call__DRAGON_.ite19 call__DRAGON_.ite18))
(define-fun .def_1705 () Bool (or .def_1703 param_e06))
(define-fun .def_1710 () Bool (and .def_1705 .def_1709))
(define-fun .def_1713 () Bool (and .def_1710 .def_1712))
(define-fun .def_1717 () Bool (and .def_1713 .def_1716))
(define-fun .def_1698 () Bool (= call__DRAGON_.ite20 call__DRAGON_.ite19))
(define-fun .def_1699 () Bool (or param_e05 .def_1698))
(define-fun .def_1694 () Bool (= call__DRAGON_.ite13 call__DRAGON_.ite20))
(define-fun .def_1695 () Bool (or .def_1690 .def_1694))
(define-fun .def_1689 () Bool (= call__DRAGON_.ite42 call__DRAGON_.ite35))
(define-fun .def_1691 () Bool (or .def_1689 .def_1690))
(define-fun .def_1685 () Bool (= call__DRAGON_.ite42 call__DRAGON_.ite41))
(define-fun .def_1687 () Bool (or .def_1685 param_e05))
(define-fun .def_1692 () Bool (and .def_1687 .def_1691))
(define-fun .def_1696 () Bool (and .def_1692 .def_1695))
(define-fun .def_1700 () Bool (and .def_1696 .def_1699))
(define-fun .def_1680 () Bool (= call__DRAGON_.ite9 call__DRAGON_.ite8))
(define-fun .def_1681 () Bool (or param_e03 .def_1680))
(define-fun .def_1676 () Bool (= call__DRAGON_.ite4 call__DRAGON_.ite9))
(define-fun .def_1677 () Bool (or .def_1671 .def_1676))
(define-fun .def_1670 () Bool (= call__DRAGON_.ite44 call__DRAGON_.ite33))
(define-fun .def_1672 () Bool (or .def_1670 .def_1671))
(define-fun .def_1666 () Bool (= call__DRAGON_.ite43 call__DRAGON_.ite44))
(define-fun .def_1668 () Bool (or .def_1666 param_e03))
(define-fun .def_1673 () Bool (and .def_1668 .def_1672))
(define-fun .def_1678 () Bool (and .def_1673 .def_1677))
(define-fun .def_1682 () Bool (and .def_1678 .def_1681))
(define-fun .def_1662 () Bool (= call__DRAGON_.ite30 call__DRAGON_.ite29))
(define-fun .def_1663 () Bool (or param_e04 .def_1662))
(define-fun .def_1658 () Bool (= call__DRAGON_.ite23 call__DRAGON_.ite30))
(define-fun .def_1659 () Bool (or .def_1654 .def_1658))
(define-fun .def_1653 () Bool (= call__DRAGON_.ite43 call__DRAGON_.ite34))
(define-fun .def_1655 () Bool (or .def_1653 .def_1654))
(define-fun .def_1649 () Bool (= call__DRAGON_.ite43 call__DRAGON_.ite42))
(define-fun .def_1651 () Bool (or .def_1649 param_e04))
(define-fun .def_1656 () Bool (and .def_1651 .def_1655))
(define-fun .def_1660 () Bool (and .def_1656 .def_1659))
(define-fun .def_1664 () Bool (and .def_1660 .def_1663))
(define-fun .def_1683 () Bool (and .def_1664 .def_1682))
(define-fun .def_1701 () Bool (and .def_1683 .def_1700))
(define-fun .def_1718 () Bool (and .def_1701 .def_1717))
(define-fun .def_1748 () Bool (and .def_1718 .def_1747))
(define-fun .def_1752 () Bool (and .def_1748 .def_1751))
(define-fun .def_1756 () Bool (and .def_1752 .def_1755))
(define-fun .def_1760 () Bool (and .def_1756 .def_1759))
(define-fun .def_1764 () Bool (and .def_1760 .def_1763))
(define-fun .def_1768 () Bool (and .def_1764 .def_1767))
(define-fun .def_1775 () Bool (and .def_1768 .def_1774))
(define-fun .def_1794 () Bool (and .def_1775 .def_1793))
(define-fun .def_1797 () Bool (and .def_1794 .def_1796))
(define-fun .def_1818 () Bool (and .def_1797 .def_1817))
(define-fun .def_1822 () Bool (and .def_1818 .def_1821))
(define-fun .def_1830 () Bool (and .def_1822 .def_1829))
(define-fun .def_1834 () Bool (and .def_1830 .def_1833))
(define-fun .def_1838 () Bool (and .def_1834 .def_1837))
(define-fun .def_1842 () Bool (and .def_1838 .def_1841))
(define-fun .def_1846 () Bool (and .def_1842 .def_1845))
(define-fun .def_1850 () Bool (and .def_1846 .def_1849))
(define-fun .def_1855 () Bool (and .def_1850 .def_1854))
(define-fun .def_1890 () Bool (and .def_1855 .def_1889))
(define-fun .def_1895 () Bool (and .def_1890 .def_1894))
(define-fun .def_1900 () Bool (and .def_1895 .def_1899))
(define-fun .def_1905 () Bool (and .def_1900 .def_1904))
(define-fun .def_1908 () Bool (and .def_1905 .def_1907))
(define-fun .def_1911 () Bool (and .def_1908 .def_1910))
(define-fun .def_1919 () Bool (and .def_1911 .def_1918))
(define-fun .def_1927 () Bool (and .def_1919 .def_1926))
(define-fun .def_1934 () Bool (and .def_1927 .def_1933))
(define-fun .def_1954 () Bool (and .def_1934 .def_1953))
(define-fun .def_1992 () Bool (and .def_1954 .def_1991))
(define-fun .def_2002 () Bool (and .def_1992 .def_2001))
(define-fun .def_2004 () Bool (and .def_2002 .def_2003))
(define-fun .def_2006 () Bool (and .def_2004 .def_2005))
(define-fun .def_2008 () Bool (and .def_2006 .def_2007))
(define-fun .def_2010 () Bool (and .def_2008 .def_2009))
(define-fun .def_2012 () Bool (and .def_2010 .def_2011))
(define-fun .def_2014 () Bool (and .def_2012 .def_2013))
(define-fun .def_2116 () Bool (and .def_2014 .def_2115))
(define-fun .def_2118 () Bool (and .def_2116 .def_2117))
(define-fun .def_2120 () Bool (and .def_2118 .def_2119))
(define-fun .def_2122 () Bool (and .def_2120 .def_2121))
(define-fun .def_2124 () Bool (and .def_2122 .def_2123))
(define-fun .def_2126 () Bool (and .def_2124 .def_2125))
(define-fun .def_2128 () Bool (and .def_2126 .def_2127))
(define-fun .def_1645 () Bool (= param_init_invalid call_First5.flby))
(define-fun .def_1642 () Bool (= param_init_invalid call_First4.flby))
(define-fun .def_1639 () Bool (= param_init_invalid call_First3.flby))
(define-fun .def_1636 () Bool (= param_init_invalid call_First2.flby))
(define-fun .def_1633 () Bool (= param_init_invalid call_First.flby))
(define-fun .def_1625 () Bool (<= param_init_invalid 0))
(define-fun .def_1626 () Bool (not .def_1625))
(define-fun .def_1628 () Bool (and .def_1626 call_excludes12.excludes))
(define-fun .def_1630 () Bool (= .def_1628 call_Sofar.flby))
(define-fun .def_1623 () Bool (= call__DRAGON_.flby4 0))
(define-fun .def_1620 () Bool (= call__DRAGON_.flby3 0))
(define-fun .def_1617 () Bool (= call__DRAGON_.flby2 0))
(define-fun .def_1614 () Bool (= param_init_invalid call__DRAGON_.flby))
(define-fun .def_1608 () Bool (= call__DRAGON_.ite37 0))
(define-fun .def_1601 () Bool (not call__DRAGON_.g08))
(define-fun .def_1609 () Bool (or .def_1601 .def_1608))
(define-fun .def_1604 () Bool (= call__DRAGON_.ite5 0))
(define-fun .def_1605 () Bool (or .def_1601 .def_1604))
(define-fun .def_1599 () Bool (= call__DRAGON_.ite25 1))
(define-fun .def_1602 () Bool (or .def_1599 .def_1601))
(define-fun .def_1606 () Bool (and .def_1602 .def_1605))
(define-fun .def_1610 () Bool (and .def_1606 .def_1609))
(define-fun .def_1595 () Bool (= call__DRAGON_.ite24 1))
(define-fun .def_1593 () Bool (not call__DRAGON_.g06))
(define-fun .def_1596 () Bool (or .def_1593 .def_1595))
(define-fun .def_1589 () Bool (= call__DRAGON_.ite13 0))
(define-fun .def_1587 () Bool (not call__DRAGON_.g05))
(define-fun .def_1590 () Bool (or .def_1587 .def_1589))
(define-fun .def_1583 () Bool (= call__DRAGON_.ite23 0))
(define-fun .def_1581 () Bool (not call__DRAGON_.g04))
(define-fun .def_1584 () Bool (or .def_1581 .def_1583))
(define-fun .def_1576 () Bool (= call__DRAGON_.ite3 0))
(define-fun .def_1573 () Bool (not call__DRAGON_.g02))
(define-fun .def_1577 () Bool (or .def_1573 .def_1576))
(define-fun .def_1571 () Bool (= call__DRAGON_.ite32 0))
(define-fun .def_1574 () Bool (or .def_1571 .def_1573))
(define-fun .def_1578 () Bool (and .def_1574 .def_1577))
(define-fun .def_1568 () Bool (= call__DRAGON_.flby6 call__DRAGON_.mem_init))
(define-fun .def_1564 () Bool (= call__DRAGON_.flby5 0))
(define-fun .def_1559 () Bool (= call__DRAGON_.ite53 call__DRAGON_.ite54))
(define-fun .def_1560 () Bool (or .def_1555 .def_1559))
(define-fun .def_1553 () Bool (= call__DRAGON_.ite6 call__DRAGON_.ite7))
(define-fun .def_1556 () Bool (or .def_1553 .def_1555))
(define-fun .def_1561 () Bool (and .def_1556 .def_1560))
(define-fun .def_1546 () Bool (= call__DRAGON_.ite26 call__DRAGON_.ite27))
(define-fun .def_1549 () Bool (or .def_1546 .def_1548))
(define-fun .def_1539 () Bool (= call__DRAGON_.ite16 call__DRAGON_.ite17))
(define-fun .def_1542 () Bool (or .def_1539 .def_1541))
(define-fun .def_1531 () Bool (= call__DRAGON_.ite38 call__DRAGON_.ite39))
(define-fun .def_1534 () Bool (or .def_1531 .def_1533))
(define-fun .def_1536 () Bool (and .def_1534 flby))
(define-fun .def_1543 () Bool (and .def_1536 .def_1542))
(define-fun .def_1550 () Bool (and .def_1543 .def_1549))
(define-fun .def_1562 () Bool (and .def_1550 .def_1561))
(define-fun .def_1565 () Bool (and .def_1562 .def_1564))
(define-fun .def_1569 () Bool (and .def_1565 .def_1568))
(define-fun .def_1579 () Bool (and .def_1569 .def_1578))
(define-fun .def_1585 () Bool (and .def_1579 .def_1584))
(define-fun .def_1591 () Bool (and .def_1585 .def_1590))
(define-fun .def_1597 () Bool (and .def_1591 .def_1596))
(define-fun .def_1611 () Bool (and .def_1597 .def_1610))
(define-fun .def_1615 () Bool (and .def_1611 .def_1614))
(define-fun .def_1618 () Bool (and .def_1615 .def_1617))
(define-fun .def_1621 () Bool (and .def_1618 .def_1620))
(define-fun .def_1624 () Bool (and .def_1621 .def_1623))
(define-fun .def_1631 () Bool (and .def_1624 .def_1630))
(define-fun .def_1634 () Bool (and .def_1631 .def_1633))
(define-fun .def_1637 () Bool (and .def_1634 .def_1636))
(define-fun .def_1640 () Bool (and .def_1637 .def_1639))
(define-fun .def_1643 () Bool (and .def_1640 .def_1642))
(define-fun .def_1646 () Bool (and .def_1643 .def_1645))
(define-fun .def_2129 () Bool (and .def_1646 .def_2128))
(assert .def_2129)
